NAME : 	X-n120-k6	
COMMENT : 	"Generated by Uchoa, Pecin, Pessoa, Poggi, Subramanian, and Vidal (2013)"	
TYPE : 	CVRP	
DIMENSION : 	120	
EDGE_WEIGHT_TYPE : 	EUC_2D	
CAPACITY : 	21	
NODE_COORD_SECTION		
1	0	0
2	927	318
3	319	475
4	471	281
5	894	615
6	712	832
7	677	210
8	336	967
9	490	360
10	367	685
11	153	169
12	799	63
13	247	455
14	492	585
15	131	701
16	309	721
17	210	256
18	511	753
19	447	796
20	394	856
21	131	13
22	181	425
23	892	585
24	161	651
25	964	365
26	82	353
27	706	842
28	793	53
29	364	841
30	126	306
31	86	477
32	51	277
33	192	360
34	52	568
35	682	45
36	778	300
37	10	737
38	928	438
39	95	240
40	391	368
41	586	170
42	645	731
43	381	396
44	387	491
45	388	753
46	429	276
47	547	989
48	840	945
49	88	969
50	331	421
51	55	132
52	904	771
53	63	190
54	731	528
55	320	84
56	308	276
57	891	182
58	836	473
59	209	741
60	864	533
61	852	600
62	180	150
63	544	140
64	956	881
65	432	487
66	129	968
67	597	962
68	51	423
69	827	605
70	776	619
71	354	297
72	311	129
73	552	106
74	24	318
75	148	944
76	502	869
77	396	492
78	815	500
79	425	338
80	178	511
81	168	274
82	775	603
83	481	465
84	281	777
85	216	211
86	784	740
87	127	992
88	544	117
89	92	170
90	846	755
91	614	326
92	180	372
93	720	252
94	262	291
95	171	186
96	868	613
97	291	119
98	427	974
99	481	557
100	403	645
101	819	502
102	915	919
103	581	85
104	527	743
105	953	893
106	955	912
107	269	924
108	216	84
109	601	952
110	441	439
111	170	949
112	614	92
113	439	212
114	413	509
115	545	336
116	50	806
117	166	86
118	658	870
119	122	511
120	178	170
DEMAND_SECTION		
1	0	
2	1	
3	1	
4	1	
5	1	
6	1	
7	1	
8	1	
9	1	
10	1	
11	1	
12	1	
13	1	
14	1	
15	1	
16	1	
17	1	
18	1	
19	1	
20	1	
21	1	
22	1	
23	1	
24	1	
25	1	
26	1	
27	1	
28	1	
29	1	
30	1	
31	1	
32	1	
33	1	
34	1	
35	1	
36	1	
37	1	
38	1	
39	1	
40	1	
41	1	
42	1	
43	1	
44	1	
45	1	
46	1	
47	1	
48	1	
49	1	
50	1	
51	1	
52	1	
53	1	
54	1	
55	1	
56	1	
57	1	
58	1	
59	1	
60	1	
61	1	
62	1	
63	1	
64	1	
65	1	
66	1	
67	1	
68	1	
69	1	
70	1	
71	1	
72	1	
73	1	
74	1	
75	1	
76	1	
77	1	
78	1	
79	1	
80	1	
81	1	
82	1	
83	1	
84	1	
85	1	
86	1	
87	1	
88	1	
89	1	
90	1	
91	1	
92	1	
93	1	
94	1	
95	1	
96	1	
97	1	
98	1	
99	1	
100	1	
101	1	
102	1	
103	1	
104	1	
105	1	
106	1	
107	1	
108	1	
109	1	
110	1	
111	1	
112	1	
113	1	
114	1	
115	1	
116	1	
117	1	
118	1	
119	1	
120	1	
DEPOT_SECTION		
	1	
	-1	
EOF		
